$ 1 0.000005 10.20027730826997 50 5 50 5e-11
v 176 528 176 432 0 0 40 5 0 0 0.5
r 176 432 272 432 0 100
s 272 432 368 432 0 1 false
c 368 432 368 528 0 2e-10 0.0013333350078386312 0
c 368 432 464 432 0 2e-10 0.0006666666653173142 0
r 464 432 544 432 0 100
c 544 432 544 528 0 5e-11 0.0006666683425213171 0
r 640 432 720 432 0 100
s 720 432 720 528 0 1 false
w 720 528 640 528 0
w 544 528 368 528 0
w 368 528 176 528 0
x 215 395 232 398 4 24 R
x 129 488 145 491 4 24 E
x 558 513 588 516 4 24 C3
x 499 393 516 396 4 24 R
x 670 391 687 394 4 24 R
x 380 514 410 517 4 24 C1
x 403 393 433 396 4 24 C2
x 528 418 559 421 4 24 (A)
x 528 558 559 561 4 24 (B)
p 608 512 608 448 1 0 0
w 608 448 544 432 0
w 608 512 544 528 0
w 640 432 544 432 0
w 640 528 544 528 0
x 372 615 549 618 6 24 10-Sep-2022,\sz3
